(declare-fun Constructed_Argument_t () String)
(declare-fun Constructed_Argument_Array_Length () Int)
(declare-fun CreateAsClass () Bool)
(declare-fun ExpandObjSwitcher () Real)
(assert (= Constructed_Argument_t "array_number"))
(assert (>= Constructed_Argument_Array_Length 0))
(assert CreateAsClass)
(assert (not (= ExpandObjSwitcher 0.0)))
(assert (not (= ExpandObjSwitcher 1.0)))
(assert (not (= ExpandObjSwitcher 2.0)))
(check-sat)
